c Optimised CNF encoding for 9x9 Sudoku
c Source: sudoku_9x9_17clue_04.txt
c Variables: 301  Clauses: 2733
p cnf 301 2733
1 2 3 4 0
5 6 7 8 9 10 0
11 12 13 14 15 0
16 17 18 19 20 0
21 22 23 24 0
25 26 27 28 29 30 0
31 32 33 34 35 0
36 37 38 39 40 41 42 0
43 44 45 0
46 47 48 0
49 50 51 52 0
53 54 55 56 57 0
58 59 60 61 62 0
63 64 65 66 67 68 0
69 70 71 72 73 0
74 75 76 0
77 78 79 80 0
81 82 83 0
84 85 86 87 88 0
89 90 91 92 0
93 94 95 96 0
97 98 99 100 0
101 102 103 104 0
105 106 107 108 0
109 110 111 112 0
113 114 115 116 0
117 118 119 120 121 0
122 123 124 125 126 0
127 128 129 130 0
131 132 133 134 135 0
136 137 138 0
139 140 141 0
142 143 144 145 0
146 147 148 149 0
150 151 152 153 0
154 155 156 157 158 0
159 160 161 162 0
163 164 165 166 0
167 168 169 170 0
171 172 173 174 0
175 176 177 178 0
179 180 181 182 183 0
184 185 186 187 188 0
189 190 191 192 193 0
194 195 196 197 0
198 199 200 201 202 0
203 204 205 206 207 0
208 209 210 211 212 0
213 214 215 216 0
217 218 219 220 221 222 0
223 224 225 226 227 228 0
229 230 231 232 233 0
234 235 236 237 238 0
239 240 241 242 0
243 244 245 0
246 247 248 249 250 251 252 0
253 254 255 256 257 0
258 259 260 261 262 263 264 0
265 266 267 268 269 270 0
271 272 273 274 275 276 0
277 278 279 280 281 282 283 0
284 285 286 287 288 289 290 0
291 292 293 294 295 296 0
297 298 299 300 301 0
-1 -2 0
-1 -3 0
-1 -4 0
-2 -3 0
-2 -4 0
-3 -4 0
-5 -6 0
-5 -7 0
-5 -8 0
-5 -9 0
-5 -10 0
-6 -7 0
-6 -8 0
-6 -9 0
-6 -10 0
-7 -8 0
-7 -9 0
-7 -10 0
-8 -9 0
-8 -10 0
-9 -10 0
-11 -12 0
-11 -13 0
-11 -14 0
-11 -15 0
-12 -13 0
-12 -14 0
-12 -15 0
-13 -14 0
-13 -15 0
-14 -15 0
-16 -17 0
-16 -18 0
-16 -19 0
-16 -20 0
-17 -18 0
-17 -19 0
-17 -20 0
-18 -19 0
-18 -20 0
-19 -20 0
-21 -22 0
-21 -23 0
-21 -24 0
-22 -23 0
-22 -24 0
-23 -24 0
-25 -26 0
-25 -27 0
-25 -28 0
-25 -29 0
-25 -30 0
-26 -27 0
-26 -28 0
-26 -29 0
-26 -30 0
-27 -28 0
-27 -29 0
-27 -30 0
-28 -29 0
-28 -30 0
-29 -30 0
-31 -32 0
-31 -33 0
-31 -34 0
-31 -35 0
-32 -33 0
-32 -34 0
-32 -35 0
-33 -34 0
-33 -35 0
-34 -35 0
-36 -37 0
-36 -38 0
-36 -39 0
-36 -40 0
-36 -41 0
-36 -42 0
-37 -38 0
-37 -39 0
-37 -40 0
-37 -41 0
-37 -42 0
-38 -39 0
-38 -40 0
-38 -41 0
-38 -42 0
-39 -40 0
-39 -41 0
-39 -42 0
-40 -41 0
-40 -42 0
-41 -42 0
-43 -44 0
-43 -45 0
-44 -45 0
-46 -47 0
-46 -48 0
-47 -48 0
-49 -50 0
-49 -51 0
-49 -52 0
-50 -51 0
-50 -52 0
-51 -52 0
-53 -54 0
-53 -55 0
-53 -56 0
-53 -57 0
-54 -55 0
-54 -56 0
-54 -57 0
-55 -56 0
-55 -57 0
-56 -57 0
-58 -59 0
-58 -60 0
-58 -61 0
-58 -62 0
-59 -60 0
-59 -61 0
-59 -62 0
-60 -61 0
-60 -62 0
-61 -62 0
-63 -64 0
-63 -65 0
-63 -66 0
-63 -67 0
-63 -68 0
-64 -65 0
-64 -66 0
-64 -67 0
-64 -68 0
-65 -66 0
-65 -67 0
-65 -68 0
-66 -67 0
-66 -68 0
-67 -68 0
-69 -70 0
-69 -71 0
-69 -72 0
-69 -73 0
-70 -71 0
-70 -72 0
-70 -73 0
-71 -72 0
-71 -73 0
-72 -73 0
-74 -75 0
-74 -76 0
-75 -76 0
-77 -78 0
-77 -79 0
-77 -80 0
-78 -79 0
-78 -80 0
-79 -80 0
-81 -82 0
-81 -83 0
-82 -83 0
-84 -85 0
-84 -86 0
-84 -87 0
-84 -88 0
-85 -86 0
-85 -87 0
-85 -88 0
-86 -87 0
-86 -88 0
-87 -88 0
-89 -90 0
-89 -91 0
-89 -92 0
-90 -91 0
-90 -92 0
-91 -92 0
-93 -94 0
-93 -95 0
-93 -96 0
-94 -95 0
-94 -96 0
-95 -96 0
-97 -98 0
-97 -99 0
-97 -100 0
-98 -99 0
-98 -100 0
-99 -100 0
-101 -102 0
-101 -103 0
-101 -104 0
-102 -103 0
-102 -104 0
-103 -104 0
-105 -106 0
-105 -107 0
-105 -108 0
-106 -107 0
-106 -108 0
-107 -108 0
-109 -110 0
-109 -111 0
-109 -112 0
-110 -111 0
-110 -112 0
-111 -112 0
-113 -114 0
-113 -115 0
-113 -116 0
-114 -115 0
-114 -116 0
-115 -116 0
-117 -118 0
-117 -119 0
-117 -120 0
-117 -121 0
-118 -119 0
-118 -120 0
-118 -121 0
-119 -120 0
-119 -121 0
-120 -121 0
-122 -123 0
-122 -124 0
-122 -125 0
-122 -126 0
-123 -124 0
-123 -125 0
-123 -126 0
-124 -125 0
-124 -126 0
-125 -126 0
-127 -128 0
-127 -129 0
-127 -130 0
-128 -129 0
-128 -130 0
-129 -130 0
-131 -132 0
-131 -133 0
-131 -134 0
-131 -135 0
-132 -133 0
-132 -134 0
-132 -135 0
-133 -134 0
-133 -135 0
-134 -135 0
-136 -137 0
-136 -138 0
-137 -138 0
-139 -140 0
-139 -141 0
-140 -141 0
-142 -143 0
-142 -144 0
-142 -145 0
-143 -144 0
-143 -145 0
-144 -145 0
-146 -147 0
-146 -148 0
-146 -149 0
-147 -148 0
-147 -149 0
-148 -149 0
-150 -151 0
-150 -152 0
-150 -153 0
-151 -152 0
-151 -153 0
-152 -153 0
-154 -155 0
-154 -156 0
-154 -157 0
-154 -158 0
-155 -156 0
-155 -157 0
-155 -158 0
-156 -157 0
-156 -158 0
-157 -158 0
-159 -160 0
-159 -161 0
-159 -162 0
-160 -161 0
-160 -162 0
-161 -162 0
-163 -164 0
-163 -165 0
-163 -166 0
-164 -165 0
-164 -166 0
-165 -166 0
-167 -168 0
-167 -169 0
-167 -170 0
-168 -169 0
-168 -170 0
-169 -170 0
-171 -172 0
-171 -173 0
-171 -174 0
-172 -173 0
-172 -174 0
-173 -174 0
-175 -176 0
-175 -177 0
-175 -178 0
-176 -177 0
-176 -178 0
-177 -178 0
-179 -180 0
-179 -181 0
-179 -182 0
-179 -183 0
-180 -181 0
-180 -182 0
-180 -183 0
-181 -182 0
-181 -183 0
-182 -183 0
-184 -185 0
-184 -186 0
-184 -187 0
-184 -188 0
-185 -186 0
-185 -187 0
-185 -188 0
-186 -187 0
-186 -188 0
-187 -188 0
-189 -190 0
-189 -191 0
-189 -192 0
-189 -193 0
-190 -191 0
-190 -192 0
-190 -193 0
-191 -192 0
-191 -193 0
-192 -193 0
-194 -195 0
-194 -196 0
-194 -197 0
-195 -196 0
-195 -197 0
-196 -197 0
-198 -199 0
-198 -200 0
-198 -201 0
-198 -202 0
-199 -200 0
-199 -201 0
-199 -202 0
-200 -201 0
-200 -202 0
-201 -202 0
-203 -204 0
-203 -205 0
-203 -206 0
-203 -207 0
-204 -205 0
-204 -206 0
-204 -207 0
-205 -206 0
-205 -207 0
-206 -207 0
-208 -209 0
-208 -210 0
-208 -211 0
-208 -212 0
-209 -210 0
-209 -211 0
-209 -212 0
-210 -211 0
-210 -212 0
-211 -212 0
-213 -214 0
-213 -215 0
-213 -216 0
-214 -215 0
-214 -216 0
-215 -216 0
-217 -218 0
-217 -219 0
-217 -220 0
-217 -221 0
-217 -222 0
-218 -219 0
-218 -220 0
-218 -221 0
-218 -222 0
-219 -220 0
-219 -221 0
-219 -222 0
-220 -221 0
-220 -222 0
-221 -222 0
-223 -224 0
-223 -225 0
-223 -226 0
-223 -227 0
-223 -228 0
-224 -225 0
-224 -226 0
-224 -227 0
-224 -228 0
-225 -226 0
-225 -227 0
-225 -228 0
-226 -227 0
-226 -228 0
-227 -228 0
-229 -230 0
-229 -231 0
-229 -232 0
-229 -233 0
-230 -231 0
-230 -232 0
-230 -233 0
-231 -232 0
-231 -233 0
-232 -233 0
-234 -235 0
-234 -236 0
-234 -237 0
-234 -238 0
-235 -236 0
-235 -237 0
-235 -238 0
-236 -237 0
-236 -238 0
-237 -238 0
-239 -240 0
-239 -241 0
-239 -242 0
-240 -241 0
-240 -242 0
-241 -242 0
-243 -244 0
-243 -245 0
-244 -245 0
-246 -247 0
-246 -248 0
-246 -249 0
-246 -250 0
-246 -251 0
-246 -252 0
-247 -248 0
-247 -249 0
-247 -250 0
-247 -251 0
-247 -252 0
-248 -249 0
-248 -250 0
-248 -251 0
-248 -252 0
-249 -250 0
-249 -251 0
-249 -252 0
-250 -251 0
-250 -252 0
-251 -252 0
-253 -254 0
-253 -255 0
-253 -256 0
-253 -257 0
-254 -255 0
-254 -256 0
-254 -257 0
-255 -256 0
-255 -257 0
-256 -257 0
-258 -259 0
-258 -260 0
-258 -261 0
-258 -262 0
-258 -263 0
-258 -264 0
-259 -260 0
-259 -261 0
-259 -262 0
-259 -263 0
-259 -264 0
-260 -261 0
-260 -262 0
-260 -263 0
-260 -264 0
-261 -262 0
-261 -263 0
-261 -264 0
-262 -263 0
-262 -264 0
-263 -264 0
-265 -266 0
-265 -267 0
-265 -268 0
-265 -269 0
-265 -270 0
-266 -267 0
-266 -268 0
-266 -269 0
-266 -270 0
-267 -268 0
-267 -269 0
-267 -270 0
-268 -269 0
-268 -270 0
-269 -270 0
-271 -272 0
-271 -273 0
-271 -274 0
-271 -275 0
-271 -276 0
-272 -273 0
-272 -274 0
-272 -275 0
-272 -276 0
-273 -274 0
-273 -275 0
-273 -276 0
-274 -275 0
-274 -276 0
-275 -276 0
-277 -278 0
-277 -279 0
-277 -280 0
-277 -281 0
-277 -282 0
-277 -283 0
-278 -279 0
-278 -280 0
-278 -281 0
-278 -282 0
-278 -283 0
-279 -280 0
-279 -281 0
-279 -282 0
-279 -283 0
-280 -281 0
-280 -282 0
-280 -283 0
-281 -282 0
-281 -283 0
-282 -283 0
-284 -285 0
-284 -286 0
-284 -287 0
-284 -288 0
-284 -289 0
-284 -290 0
-285 -286 0
-285 -287 0
-285 -288 0
-285 -289 0
-285 -290 0
-286 -287 0
-286 -288 0
-286 -289 0
-286 -290 0
-287 -288 0
-287 -289 0
-287 -290 0
-288 -289 0
-288 -290 0
-289 -290 0
-291 -292 0
-291 -293 0
-291 -294 0
-291 -295 0
-291 -296 0
-292 -293 0
-292 -294 0
-292 -295 0
-292 -296 0
-293 -294 0
-293 -295 0
-293 -296 0
-294 -295 0
-294 -296 0
-295 -296 0
-297 -298 0
-297 -299 0
-297 -300 0
-297 -301 0
-298 -299 0
-298 -300 0
-298 -301 0
-299 -300 0
-299 -301 0
-300 -301 0
1 5 11 16 21 25 36 0
2 6 12 17 0
13 22 26 31 37 0
7 18 23 27 32 38 0
8 28 33 39 0
14 19 24 34 40 0
3 9 29 41 0
4 10 15 20 30 35 42 0
43 46 49 53 58 63 0
54 59 64 69 0
60 65 70 0
47 50 55 61 66 71 0
56 62 72 0
44 51 67 0
45 48 52 57 68 73 0
74 77 81 84 93 0
78 82 85 89 0
75 79 0
83 86 90 94 0
87 91 95 0
76 80 88 92 96 0
97 101 105 109 113 0
98 102 117 122 0
103 106 118 123 0
114 119 124 0
99 107 110 115 125 0
111 120 0
100 104 108 112 116 121 126 0
127 131 136 139 0
128 132 142 0
133 143 146 0
140 144 147 0
129 134 137 141 148 0
130 135 138 145 149 0
150 154 159 163 0
155 160 164 0
151 156 167 171 0
152 168 172 175 0
157 161 165 173 176 0
166 169 177 0
153 158 162 170 174 178 0
179 184 189 194 198 203 208 0
180 190 195 199 204 0
181 185 191 196 200 0
182 186 197 205 209 0
201 206 210 0
187 192 202 207 211 0
183 188 193 212 0
213 217 223 229 234 243 0
218 224 230 235 239 0
214 219 225 231 236 240 0
215 226 237 241 244 0
216 220 232 238 242 245 0
221 227 233 0
222 228 0
246 253 258 265 271 277 284 297 0
247 259 266 272 278 285 291 0
248 254 260 267 273 286 292 0
249 255 268 279 287 293 298 0
274 280 288 294 299 0
256 261 275 281 289 295 300 0
250 262 269 276 282 0
251 263 270 283 0
252 257 264 290 296 301 0
-1 -5 0
-1 -11 0
-1 -16 0
-1 -21 0
-1 -25 0
-1 -36 0
-5 -11 0
-5 -16 0
-5 -21 0
-5 -25 0
-5 -36 0
-11 -16 0
-11 -21 0
-11 -25 0
-11 -36 0
-16 -21 0
-16 -25 0
-16 -36 0
-21 -25 0
-21 -36 0
-25 -36 0
-2 -6 0
-2 -12 0
-2 -17 0
-6 -12 0
-6 -17 0
-12 -17 0
-13 -22 0
-13 -26 0
-13 -31 0
-13 -37 0
-22 -26 0
-22 -31 0
-22 -37 0
-26 -31 0
-26 -37 0
-31 -37 0
-7 -18 0
-7 -23 0
-7 -27 0
-7 -32 0
-7 -38 0
-18 -23 0
-18 -27 0
-18 -32 0
-18 -38 0
-23 -27 0
-23 -32 0
-23 -38 0
-27 -32 0
-27 -38 0
-32 -38 0
-8 -28 0
-8 -33 0
-8 -39 0
-28 -33 0
-28 -39 0
-33 -39 0
-14 -19 0
-14 -24 0
-14 -34 0
-14 -40 0
-19 -24 0
-19 -34 0
-19 -40 0
-24 -34 0
-24 -40 0
-34 -40 0
-3 -9 0
-3 -29 0
-3 -41 0
-9 -29 0
-9 -41 0
-29 -41 0
-4 -10 0
-4 -15 0
-4 -20 0
-4 -30 0
-4 -35 0
-4 -42 0
-10 -15 0
-10 -20 0
-10 -30 0
-10 -35 0
-10 -42 0
-15 -20 0
-15 -30 0
-15 -35 0
-15 -42 0
-20 -30 0
-20 -35 0
-20 -42 0
-30 -35 0
-30 -42 0
-35 -42 0
-43 -46 0
-43 -49 0
-43 -53 0
-43 -58 0
-43 -63 0
-46 -49 0
-46 -53 0
-46 -58 0
-46 -63 0
-49 -53 0
-49 -58 0
-49 -63 0
-53 -58 0
-53 -63 0
-58 -63 0
-54 -59 0
-54 -64 0
-54 -69 0
-59 -64 0
-59 -69 0
-64 -69 0
-60 -65 0
-60 -70 0
-65 -70 0
-47 -50 0
-47 -55 0
-47 -61 0
-47 -66 0
-47 -71 0
-50 -55 0
-50 -61 0
-50 -66 0
-50 -71 0
-55 -61 0
-55 -66 0
-55 -71 0
-61 -66 0
-61 -71 0
-66 -71 0
-56 -62 0
-56 -72 0
-62 -72 0
-44 -51 0
-44 -67 0
-51 -67 0
-45 -48 0
-45 -52 0
-45 -57 0
-45 -68 0
-45 -73 0
-48 -52 0
-48 -57 0
-48 -68 0
-48 -73 0
-52 -57 0
-52 -68 0
-52 -73 0
-57 -68 0
-57 -73 0
-68 -73 0
-74 -77 0
-74 -81 0
-74 -84 0
-74 -93 0
-77 -81 0
-77 -84 0
-77 -93 0
-81 -84 0
-81 -93 0
-84 -93 0
-78 -82 0
-78 -85 0
-78 -89 0
-82 -85 0
-82 -89 0
-85 -89 0
-75 -79 0
-83 -86 0
-83 -90 0
-83 -94 0
-86 -90 0
-86 -94 0
-90 -94 0
-87 -91 0
-87 -95 0
-91 -95 0
-76 -80 0
-76 -88 0
-76 -92 0
-76 -96 0
-80 -88 0
-80 -92 0
-80 -96 0
-88 -92 0
-88 -96 0
-92 -96 0
-97 -101 0
-97 -105 0
-97 -109 0
-97 -113 0
-101 -105 0
-101 -109 0
-101 -113 0
-105 -109 0
-105 -113 0
-109 -113 0
-98 -102 0
-98 -117 0
-98 -122 0
-102 -117 0
-102 -122 0
-117 -122 0
-103 -106 0
-103 -118 0
-103 -123 0
-106 -118 0
-106 -123 0
-118 -123 0
-114 -119 0
-114 -124 0
-119 -124 0
-99 -107 0
-99 -110 0
-99 -115 0
-99 -125 0
-107 -110 0
-107 -115 0
-107 -125 0
-110 -115 0
-110 -125 0
-115 -125 0
-111 -120 0
-100 -104 0
-100 -108 0
-100 -112 0
-100 -116 0
-100 -121 0
-100 -126 0
-104 -108 0
-104 -112 0
-104 -116 0
-104 -121 0
-104 -126 0
-108 -112 0
-108 -116 0
-108 -121 0
-108 -126 0
-112 -116 0
-112 -121 0
-112 -126 0
-116 -121 0
-116 -126 0
-121 -126 0
-127 -131 0
-127 -136 0
-127 -139 0
-131 -136 0
-131 -139 0
-136 -139 0
-128 -132 0
-128 -142 0
-132 -142 0
-133 -143 0
-133 -146 0
-143 -146 0
-140 -144 0
-140 -147 0
-144 -147 0
-129 -134 0
-129 -137 0
-129 -141 0
-129 -148 0
-134 -137 0
-134 -141 0
-134 -148 0
-137 -141 0
-137 -148 0
-141 -148 0
-130 -135 0
-130 -138 0
-130 -145 0
-130 -149 0
-135 -138 0
-135 -145 0
-135 -149 0
-138 -145 0
-138 -149 0
-145 -149 0
-150 -154 0
-150 -159 0
-150 -163 0
-154 -159 0
-154 -163 0
-159 -163 0
-155 -160 0
-155 -164 0
-160 -164 0
-151 -156 0
-151 -167 0
-151 -171 0
-156 -167 0
-156 -171 0
-167 -171 0
-152 -168 0
-152 -172 0
-152 -175 0
-168 -172 0
-168 -175 0
-172 -175 0
-157 -161 0
-157 -165 0
-157 -173 0
-157 -176 0
-161 -165 0
-161 -173 0
-161 -176 0
-165 -173 0
-165 -176 0
-173 -176 0
-166 -169 0
-166 -177 0
-169 -177 0
-153 -158 0
-153 -162 0
-153 -170 0
-153 -174 0
-153 -178 0
-158 -162 0
-158 -170 0
-158 -174 0
-158 -178 0
-162 -170 0
-162 -174 0
-162 -178 0
-170 -174 0
-170 -178 0
-174 -178 0
-179 -184 0
-179 -189 0
-179 -194 0
-179 -198 0
-179 -203 0
-179 -208 0
-184 -189 0
-184 -194 0
-184 -198 0
-184 -203 0
-184 -208 0
-189 -194 0
-189 -198 0
-189 -203 0
-189 -208 0
-194 -198 0
-194 -203 0
-194 -208 0
-198 -203 0
-198 -208 0
-203 -208 0
-180 -190 0
-180 -195 0
-180 -199 0
-180 -204 0
-190 -195 0
-190 -199 0
-190 -204 0
-195 -199 0
-195 -204 0
-199 -204 0
-181 -185 0
-181 -191 0
-181 -196 0
-181 -200 0
-185 -191 0
-185 -196 0
-185 -200 0
-191 -196 0
-191 -200 0
-196 -200 0
-182 -186 0
-182 -197 0
-182 -205 0
-182 -209 0
-186 -197 0
-186 -205 0
-186 -209 0
-197 -205 0
-197 -209 0
-205 -209 0
-201 -206 0
-201 -210 0
-206 -210 0
-187 -192 0
-187 -202 0
-187 -207 0
-187 -211 0
-192 -202 0
-192 -207 0
-192 -211 0
-202 -207 0
-202 -211 0
-207 -211 0
-183 -188 0
-183 -193 0
-183 -212 0
-188 -193 0
-188 -212 0
-193 -212 0
-213 -217 0
-213 -223 0
-213 -229 0
-213 -234 0
-213 -243 0
-217 -223 0
-217 -229 0
-217 -234 0
-217 -243 0
-223 -229 0
-223 -234 0
-223 -243 0
-229 -234 0
-229 -243 0
-234 -243 0
-218 -224 0
-218 -230 0
-218 -235 0
-218 -239 0
-224 -230 0
-224 -235 0
-224 -239 0
-230 -235 0
-230 -239 0
-235 -239 0
-214 -219 0
-214 -225 0
-214 -231 0
-214 -236 0
-214 -240 0
-219 -225 0
-219 -231 0
-219 -236 0
-219 -240 0
-225 -231 0
-225 -236 0
-225 -240 0
-231 -236 0
-231 -240 0
-236 -240 0
-215 -226 0
-215 -237 0
-215 -241 0
-215 -244 0
-226 -237 0
-226 -241 0
-226 -244 0
-237 -241 0
-237 -244 0
-241 -244 0
-216 -220 0
-216 -232 0
-216 -238 0
-216 -242 0
-216 -245 0
-220 -232 0
-220 -238 0
-220 -242 0
-220 -245 0
-232 -238 0
-232 -242 0
-232 -245 0
-238 -242 0
-238 -245 0
-242 -245 0
-221 -227 0
-221 -233 0
-227 -233 0
-222 -228 0
-246 -253 0
-246 -258 0
-246 -265 0
-246 -271 0
-246 -277 0
-246 -284 0
-246 -297 0
-253 -258 0
-253 -265 0
-253 -271 0
-253 -277 0
-253 -284 0
-253 -297 0
-258 -265 0
-258 -271 0
-258 -277 0
-258 -284 0
-258 -297 0
-265 -271 0
-265 -277 0
-265 -284 0
-265 -297 0
-271 -277 0
-271 -284 0
-271 -297 0
-277 -284 0
-277 -297 0
-284 -297 0
-247 -259 0
-247 -266 0
-247 -272 0
-247 -278 0
-247 -285 0
-247 -291 0
-259 -266 0
-259 -272 0
-259 -278 0
-259 -285 0
-259 -291 0
-266 -272 0
-266 -278 0
-266 -285 0
-266 -291 0
-272 -278 0
-272 -285 0
-272 -291 0
-278 -285 0
-278 -291 0
-285 -291 0
-248 -254 0
-248 -260 0
-248 -267 0
-248 -273 0
-248 -286 0
-248 -292 0
-254 -260 0
-254 -267 0
-254 -273 0
-254 -286 0
-254 -292 0
-260 -267 0
-260 -273 0
-260 -286 0
-260 -292 0
-267 -273 0
-267 -286 0
-267 -292 0
-273 -286 0
-273 -292 0
-286 -292 0
-249 -255 0
-249 -268 0
-249 -279 0
-249 -287 0
-249 -293 0
-249 -298 0
-255 -268 0
-255 -279 0
-255 -287 0
-255 -293 0
-255 -298 0
-268 -279 0
-268 -287 0
-268 -293 0
-268 -298 0
-279 -287 0
-279 -293 0
-279 -298 0
-287 -293 0
-287 -298 0
-293 -298 0
-274 -280 0
-274 -288 0
-274 -294 0
-274 -299 0
-280 -288 0
-280 -294 0
-280 -299 0
-288 -294 0
-288 -299 0
-294 -299 0
-256 -261 0
-256 -275 0
-256 -281 0
-256 -289 0
-256 -295 0
-256 -300 0
-261 -275 0
-261 -281 0
-261 -289 0
-261 -295 0
-261 -300 0
-275 -281 0
-275 -289 0
-275 -295 0
-275 -300 0
-281 -289 0
-281 -295 0
-281 -300 0
-289 -295 0
-289 -300 0
-295 -300 0
-250 -262 0
-250 -269 0
-250 -276 0
-250 -282 0
-262 -269 0
-262 -276 0
-262 -282 0
-269 -276 0
-269 -282 0
-276 -282 0
-251 -263 0
-251 -270 0
-251 -283 0
-263 -270 0
-263 -283 0
-270 -283 0
-252 -257 0
-252 -264 0
-252 -290 0
-252 -296 0
-252 -301 0
-257 -264 0
-257 -290 0
-257 -296 0
-257 -301 0
-264 -290 0
-264 -296 0
-264 -301 0
-290 -296 0
-290 -301 0
-296 -301 0
1 43 74 97 179 246 0
127 180 247 0
2 75 128 181 248 0
98 182 249 0
99 129 250 0
3 44 251 0
4 45 76 100 130 183 252 0
46 101 150 184 213 253 0
151 185 214 254 0
102 152 186 215 255 0
47 103 0
187 216 256 0
48 104 153 188 257 0
5 49 105 154 189 217 258 0
131 155 190 218 259 0
6 132 156 191 219 260 0
7 50 106 133 0
8 192 220 261 0
107 134 157 221 262 0
9 51 222 263 0
10 52 108 135 158 193 264 0
11 77 109 194 223 265 0
78 136 195 224 266 0
12 79 196 225 267 0
13 197 226 268 0
14 110 137 227 269 0
111 228 270 0
15 80 112 138 0
16 53 113 159 198 229 271 0
54 160 199 230 272 0
17 200 231 273 0
18 55 201 274 0
114 202 232 275 0
19 56 115 161 233 276 0
20 57 116 162 0
21 58 81 163 203 277 0
59 82 139 164 204 278 0
22 60 205 279 0
23 61 83 206 280 0
140 207 281 0
24 62 141 165 282 0
166 283 0
25 63 84 234 284 0
64 85 235 285 0
142 167 236 286 0
26 65 117 168 237 287 0
27 66 86 118 143 288 0
28 87 119 144 238 289 0
29 67 120 169 0
30 68 88 121 145 170 290 0
69 89 239 291 0
171 240 292 0
31 70 122 172 241 293 0
32 71 90 123 294 0
33 91 124 242 295 0
34 72 125 173 0
35 73 92 126 174 296 0
36 93 208 243 297 0
37 175 209 244 298 0
38 94 146 210 299 0
39 95 147 211 245 300 0
40 148 176 0
41 177 0
42 96 149 178 212 301 0
-1 -43 0
-1 -74 0
-1 -97 0
-1 -179 0
-1 -246 0
-43 -74 0
-43 -97 0
-43 -179 0
-43 -246 0
-74 -97 0
-74 -179 0
-74 -246 0
-97 -179 0
-97 -246 0
-179 -246 0
-127 -180 0
-127 -247 0
-180 -247 0
-2 -75 0
-2 -128 0
-2 -181 0
-2 -248 0
-75 -128 0
-75 -181 0
-75 -248 0
-128 -181 0
-128 -248 0
-181 -248 0
-98 -182 0
-98 -249 0
-182 -249 0
-99 -129 0
-99 -250 0
-129 -250 0
-3 -44 0
-3 -251 0
-44 -251 0
-4 -45 0
-4 -76 0
-4 -100 0
-4 -130 0
-4 -183 0
-4 -252 0
-45 -76 0
-45 -100 0
-45 -130 0
-45 -183 0
-45 -252 0
-76 -100 0
-76 -130 0
-76 -183 0
-76 -252 0
-100 -130 0
-100 -183 0
-100 -252 0
-130 -183 0
-130 -252 0
-183 -252 0
-46 -101 0
-46 -150 0
-46 -184 0
-46 -213 0
-46 -253 0
-101 -150 0
-101 -184 0
-101 -213 0
-101 -253 0
-150 -184 0
-150 -213 0
-150 -253 0
-184 -213 0
-184 -253 0
-213 -253 0
-151 -185 0
-151 -214 0
-151 -254 0
-185 -214 0
-185 -254 0
-214 -254 0
-102 -152 0
-102 -186 0
-102 -215 0
-102 -255 0
-152 -186 0
-152 -215 0
-152 -255 0
-186 -215 0
-186 -255 0
-215 -255 0
-47 -103 0
-187 -216 0
-187 -256 0
-216 -256 0
-48 -104 0
-48 -153 0
-48 -188 0
-48 -257 0
-104 -153 0
-104 -188 0
-104 -257 0
-153 -188 0
-153 -257 0
-188 -257 0
-5 -49 0
-5 -105 0
-5 -154 0
-5 -189 0
-5 -217 0
-5 -258 0
-49 -105 0
-49 -154 0
-49 -189 0
-49 -217 0
-49 -258 0
-105 -154 0
-105 -189 0
-105 -217 0
-105 -258 0
-154 -189 0
-154 -217 0
-154 -258 0
-189 -217 0
-189 -258 0
-217 -258 0
-131 -155 0
-131 -190 0
-131 -218 0
-131 -259 0
-155 -190 0
-155 -218 0
-155 -259 0
-190 -218 0
-190 -259 0
-218 -259 0
-6 -132 0
-6 -156 0
-6 -191 0
-6 -219 0
-6 -260 0
-132 -156 0
-132 -191 0
-132 -219 0
-132 -260 0
-156 -191 0
-156 -219 0
-156 -260 0
-191 -219 0
-191 -260 0
-219 -260 0
-7 -50 0
-7 -106 0
-7 -133 0
-50 -106 0
-50 -133 0
-106 -133 0
-8 -192 0
-8 -220 0
-8 -261 0
-192 -220 0
-192 -261 0
-220 -261 0
-107 -134 0
-107 -157 0
-107 -221 0
-107 -262 0
-134 -157 0
-134 -221 0
-134 -262 0
-157 -221 0
-157 -262 0
-221 -262 0
-9 -51 0
-9 -222 0
-9 -263 0
-51 -222 0
-51 -263 0
-222 -263 0
-10 -52 0
-10 -108 0
-10 -135 0
-10 -158 0
-10 -193 0
-10 -264 0
-52 -108 0
-52 -135 0
-52 -158 0
-52 -193 0
-52 -264 0
-108 -135 0
-108 -158 0
-108 -193 0
-108 -264 0
-135 -158 0
-135 -193 0
-135 -264 0
-158 -193 0
-158 -264 0
-193 -264 0
-11 -77 0
-11 -109 0
-11 -194 0
-11 -223 0
-11 -265 0
-77 -109 0
-77 -194 0
-77 -223 0
-77 -265 0
-109 -194 0
-109 -223 0
-109 -265 0
-194 -223 0
-194 -265 0
-223 -265 0
-78 -136 0
-78 -195 0
-78 -224 0
-78 -266 0
-136 -195 0
-136 -224 0
-136 -266 0
-195 -224 0
-195 -266 0
-224 -266 0
-12 -79 0
-12 -196 0
-12 -225 0
-12 -267 0
-79 -196 0
-79 -225 0
-79 -267 0
-196 -225 0
-196 -267 0
-225 -267 0
-13 -197 0
-13 -226 0
-13 -268 0
-197 -226 0
-197 -268 0
-226 -268 0
-14 -110 0
-14 -137 0
-14 -227 0
-14 -269 0
-110 -137 0
-110 -227 0
-110 -269 0
-137 -227 0
-137 -269 0
-227 -269 0
-111 -228 0
-111 -270 0
-228 -270 0
-15 -80 0
-15 -112 0
-15 -138 0
-80 -112 0
-80 -138 0
-112 -138 0
-16 -53 0
-16 -113 0
-16 -159 0
-16 -198 0
-16 -229 0
-16 -271 0
-53 -113 0
-53 -159 0
-53 -198 0
-53 -229 0
-53 -271 0
-113 -159 0
-113 -198 0
-113 -229 0
-113 -271 0
-159 -198 0
-159 -229 0
-159 -271 0
-198 -229 0
-198 -271 0
-229 -271 0
-54 -160 0
-54 -199 0
-54 -230 0
-54 -272 0
-160 -199 0
-160 -230 0
-160 -272 0
-199 -230 0
-199 -272 0
-230 -272 0
-17 -200 0
-17 -231 0
-17 -273 0
-200 -231 0
-200 -273 0
-231 -273 0
-18 -55 0
-18 -201 0
-18 -274 0
-55 -201 0
-55 -274 0
-201 -274 0
-114 -202 0
-114 -232 0
-114 -275 0
-202 -232 0
-202 -275 0
-232 -275 0
-19 -56 0
-19 -115 0
-19 -161 0
-19 -233 0
-19 -276 0
-56 -115 0
-56 -161 0
-56 -233 0
-56 -276 0
-115 -161 0
-115 -233 0
-115 -276 0
-161 -233 0
-161 -276 0
-233 -276 0
-20 -57 0
-20 -116 0
-20 -162 0
-57 -116 0
-57 -162 0
-116 -162 0
-21 -58 0
-21 -81 0
-21 -163 0
-21 -203 0
-21 -277 0
-58 -81 0
-58 -163 0
-58 -203 0
-58 -277 0
-81 -163 0
-81 -203 0
-81 -277 0
-163 -203 0
-163 -277 0
-203 -277 0
-59 -82 0
-59 -139 0
-59 -164 0
-59 -204 0
-59 -278 0
-82 -139 0
-82 -164 0
-82 -204 0
-82 -278 0
-139 -164 0
-139 -204 0
-139 -278 0
-164 -204 0
-164 -278 0
-204 -278 0
-22 -60 0
-22 -205 0
-22 -279 0
-60 -205 0
-60 -279 0
-205 -279 0
-23 -61 0
-23 -83 0
-23 -206 0
-23 -280 0
-61 -83 0
-61 -206 0
-61 -280 0
-83 -206 0
-83 -280 0
-206 -280 0
-140 -207 0
-140 -281 0
-207 -281 0
-24 -62 0
-24 -141 0
-24 -165 0
-24 -282 0
-62 -141 0
-62 -165 0
-62 -282 0
-141 -165 0
-141 -282 0
-165 -282 0
-166 -283 0
-25 -63 0
-25 -84 0
-25 -234 0
-25 -284 0
-63 -84 0
-63 -234 0
-63 -284 0
-84 -234 0
-84 -284 0
-234 -284 0
-64 -85 0
-64 -235 0
-64 -285 0
-85 -235 0
-85 -285 0
-235 -285 0
-142 -167 0
-142 -236 0
-142 -286 0
-167 -236 0
-167 -286 0
-236 -286 0
-26 -65 0
-26 -117 0
-26 -168 0
-26 -237 0
-26 -287 0
-65 -117 0
-65 -168 0
-65 -237 0
-65 -287 0
-117 -168 0
-117 -237 0
-117 -287 0
-168 -237 0
-168 -287 0
-237 -287 0
-27 -66 0
-27 -86 0
-27 -118 0
-27 -143 0
-27 -288 0
-66 -86 0
-66 -118 0
-66 -143 0
-66 -288 0
-86 -118 0
-86 -143 0
-86 -288 0
-118 -143 0
-118 -288 0
-143 -288 0
-28 -87 0
-28 -119 0
-28 -144 0
-28 -238 0
-28 -289 0
-87 -119 0
-87 -144 0
-87 -238 0
-87 -289 0
-119 -144 0
-119 -238 0
-119 -289 0
-144 -238 0
-144 -289 0
-238 -289 0
-29 -67 0
-29 -120 0
-29 -169 0
-67 -120 0
-67 -169 0
-120 -169 0
-30 -68 0
-30 -88 0
-30 -121 0
-30 -145 0
-30 -170 0
-30 -290 0
-68 -88 0
-68 -121 0
-68 -145 0
-68 -170 0
-68 -290 0
-88 -121 0
-88 -145 0
-88 -170 0
-88 -290 0
-121 -145 0
-121 -170 0
-121 -290 0
-145 -170 0
-145 -290 0
-170 -290 0
-69 -89 0
-69 -239 0
-69 -291 0
-89 -239 0
-89 -291 0
-239 -291 0
-171 -240 0
-171 -292 0
-240 -292 0
-31 -70 0
-31 -122 0
-31 -172 0
-31 -241 0
-31 -293 0
-70 -122 0
-70 -172 0
-70 -241 0
-70 -293 0
-122 -172 0
-122 -241 0
-122 -293 0
-172 -241 0
-172 -293 0
-241 -293 0
-32 -71 0
-32 -90 0
-32 -123 0
-32 -294 0
-71 -90 0
-71 -123 0
-71 -294 0
-90 -123 0
-90 -294 0
-123 -294 0
-33 -91 0
-33 -124 0
-33 -242 0
-33 -295 0
-91 -124 0
-91 -242 0
-91 -295 0
-124 -242 0
-124 -295 0
-242 -295 0
-34 -72 0
-34 -125 0
-34 -173 0
-72 -125 0
-72 -173 0
-125 -173 0
-35 -73 0
-35 -92 0
-35 -126 0
-35 -174 0
-35 -296 0
-73 -92 0
-73 -126 0
-73 -174 0
-73 -296 0
-92 -126 0
-92 -174 0
-92 -296 0
-126 -174 0
-126 -296 0
-174 -296 0
-36 -93 0
-36 -208 0
-36 -243 0
-36 -297 0
-93 -208 0
-93 -243 0
-93 -297 0
-208 -243 0
-208 -297 0
-243 -297 0
-37 -175 0
-37 -209 0
-37 -244 0
-37 -298 0
-175 -209 0
-175 -244 0
-175 -298 0
-209 -244 0
-209 -298 0
-244 -298 0
-38 -94 0
-38 -146 0
-38 -210 0
-38 -299 0
-94 -146 0
-94 -210 0
-94 -299 0
-146 -210 0
-146 -299 0
-210 -299 0
-39 -95 0
-39 -147 0
-39 -211 0
-39 -245 0
-39 -300 0
-95 -147 0
-95 -211 0
-95 -245 0
-95 -300 0
-147 -211 0
-147 -245 0
-147 -300 0
-211 -245 0
-211 -300 0
-245 -300 0
-40 -148 0
-40 -176 0
-148 -176 0
-41 -177 0
-42 -96 0
-42 -149 0
-42 -178 0
-42 -212 0
-42 -301 0
-96 -149 0
-96 -178 0
-96 -212 0
-96 -301 0
-149 -178 0
-149 -212 0
-149 -301 0
-178 -212 0
-178 -301 0
-212 -301 0
1 5 43 46 49 74 0
2 6 75 0
7 47 50 0
8 0
3 9 44 51 0
4 10 45 48 52 76 0
11 16 21 53 58 77 81 0
54 59 78 82 0
12 17 79 0
13 22 60 0
18 23 55 61 83 0
14 19 24 56 62 0
15 20 57 80 0
25 36 63 84 93 0
64 69 85 89 0
26 31 37 65 70 0
27 32 38 66 71 86 90 94 0
28 33 39 87 91 95 0
34 40 72 0
29 41 67 0
30 35 42 68 73 88 92 96 0
97 101 105 150 154 0
127 131 155 0
128 132 151 156 0
98 102 152 0
103 106 133 0
99 107 129 134 157 0
100 104 108 130 135 153 158 0
109 113 159 163 0
136 139 160 164 0
114 140 0
110 115 137 141 161 165 0
111 166 0
112 116 138 162 0
142 167 171 0
117 122 168 172 175 0
118 123 143 146 0
119 124 144 147 0
125 148 173 176 0
120 169 177 0
121 126 145 149 170 174 178 0
179 184 189 213 217 246 253 258 0
180 190 218 247 259 0
181 185 191 214 219 248 254 260 0
182 186 215 249 255 0
187 192 216 220 256 261 0
221 250 262 0
222 251 263 0
183 188 193 252 257 264 0
194 198 203 223 229 265 271 277 0
195 199 204 224 230 266 272 278 0
196 200 225 231 267 273 0
197 205 226 268 279 0
201 206 274 280 0
202 207 232 275 281 0
227 233 269 276 282 0
228 270 283 0
208 234 243 284 297 0
235 239 285 291 0
236 240 286 292 0
209 237 241 244 287 293 298 0
210 288 294 299 0
211 238 242 245 289 295 300 0
212 290 296 301 0
-1 -5 0
-1 -43 0
-1 -46 0
-1 -49 0
-1 -74 0
-5 -43 0
-5 -46 0
-5 -49 0
-5 -74 0
-43 -46 0
-43 -49 0
-43 -74 0
-46 -49 0
-46 -74 0
-49 -74 0
-2 -6 0
-2 -75 0
-6 -75 0
-7 -47 0
-7 -50 0
-47 -50 0
-3 -9 0
-3 -44 0
-3 -51 0
-9 -44 0
-9 -51 0
-44 -51 0
-4 -10 0
-4 -45 0
-4 -48 0
-4 -52 0
-4 -76 0
-10 -45 0
-10 -48 0
-10 -52 0
-10 -76 0
-45 -48 0
-45 -52 0
-45 -76 0
-48 -52 0
-48 -76 0
-52 -76 0
-11 -16 0
-11 -21 0
-11 -53 0
-11 -58 0
-11 -77 0
-11 -81 0
-16 -21 0
-16 -53 0
-16 -58 0
-16 -77 0
-16 -81 0
-21 -53 0
-21 -58 0
-21 -77 0
-21 -81 0
-53 -58 0
-53 -77 0
-53 -81 0
-58 -77 0
-58 -81 0
-77 -81 0
-54 -59 0
-54 -78 0
-54 -82 0
-59 -78 0
-59 -82 0
-78 -82 0
-12 -17 0
-12 -79 0
-17 -79 0
-13 -22 0
-13 -60 0
-22 -60 0
-18 -23 0
-18 -55 0
-18 -61 0
-18 -83 0
-23 -55 0
-23 -61 0
-23 -83 0
-55 -61 0
-55 -83 0
-61 -83 0
-14 -19 0
-14 -24 0
-14 -56 0
-14 -62 0
-19 -24 0
-19 -56 0
-19 -62 0
-24 -56 0
-24 -62 0
-56 -62 0
-15 -20 0
-15 -57 0
-15 -80 0
-20 -57 0
-20 -80 0
-57 -80 0
-25 -36 0
-25 -63 0
-25 -84 0
-25 -93 0
-36 -63 0
-36 -84 0
-36 -93 0
-63 -84 0
-63 -93 0
-84 -93 0
-64 -69 0
-64 -85 0
-64 -89 0
-69 -85 0
-69 -89 0
-85 -89 0
-26 -31 0
-26 -37 0
-26 -65 0
-26 -70 0
-31 -37 0
-31 -65 0
-31 -70 0
-37 -65 0
-37 -70 0
-65 -70 0
-27 -32 0
-27 -38 0
-27 -66 0
-27 -71 0
-27 -86 0
-27 -90 0
-27 -94 0
-32 -38 0
-32 -66 0
-32 -71 0
-32 -86 0
-32 -90 0
-32 -94 0
-38 -66 0
-38 -71 0
-38 -86 0
-38 -90 0
-38 -94 0
-66 -71 0
-66 -86 0
-66 -90 0
-66 -94 0
-71 -86 0
-71 -90 0
-71 -94 0
-86 -90 0
-86 -94 0
-90 -94 0
-28 -33 0
-28 -39 0
-28 -87 0
-28 -91 0
-28 -95 0
-33 -39 0
-33 -87 0
-33 -91 0
-33 -95 0
-39 -87 0
-39 -91 0
-39 -95 0
-87 -91 0
-87 -95 0
-91 -95 0
-34 -40 0
-34 -72 0
-40 -72 0
-29 -41 0
-29 -67 0
-41 -67 0
-30 -35 0
-30 -42 0
-30 -68 0
-30 -73 0
-30 -88 0
-30 -92 0
-30 -96 0
-35 -42 0
-35 -68 0
-35 -73 0
-35 -88 0
-35 -92 0
-35 -96 0
-42 -68 0
-42 -73 0
-42 -88 0
-42 -92 0
-42 -96 0
-68 -73 0
-68 -88 0
-68 -92 0
-68 -96 0
-73 -88 0
-73 -92 0
-73 -96 0
-88 -92 0
-88 -96 0
-92 -96 0
-97 -101 0
-97 -105 0
-97 -150 0
-97 -154 0
-101 -105 0
-101 -150 0
-101 -154 0
-105 -150 0
-105 -154 0
-150 -154 0
-127 -131 0
-127 -155 0
-131 -155 0
-128 -132 0
-128 -151 0
-128 -156 0
-132 -151 0
-132 -156 0
-151 -156 0
-98 -102 0
-98 -152 0
-102 -152 0
-103 -106 0
-103 -133 0
-106 -133 0
-99 -107 0
-99 -129 0
-99 -134 0
-99 -157 0
-107 -129 0
-107 -134 0
-107 -157 0
-129 -134 0
-129 -157 0
-134 -157 0
-100 -104 0
-100 -108 0
-100 -130 0
-100 -135 0
-100 -153 0
-100 -158 0
-104 -108 0
-104 -130 0
-104 -135 0
-104 -153 0
-104 -158 0
-108 -130 0
-108 -135 0
-108 -153 0
-108 -158 0
-130 -135 0
-130 -153 0
-130 -158 0
-135 -153 0
-135 -158 0
-153 -158 0
-109 -113 0
-109 -159 0
-109 -163 0
-113 -159 0
-113 -163 0
-159 -163 0
-136 -139 0
-136 -160 0
-136 -164 0
-139 -160 0
-139 -164 0
-160 -164 0
-114 -140 0
-110 -115 0
-110 -137 0
-110 -141 0
-110 -161 0
-110 -165 0
-115 -137 0
-115 -141 0
-115 -161 0
-115 -165 0
-137 -141 0
-137 -161 0
-137 -165 0
-141 -161 0
-141 -165 0
-161 -165 0
-111 -166 0
-112 -116 0
-112 -138 0
-112 -162 0
-116 -138 0
-116 -162 0
-138 -162 0
-142 -167 0
-142 -171 0
-167 -171 0
-117 -122 0
-117 -168 0
-117 -172 0
-117 -175 0
-122 -168 0
-122 -172 0
-122 -175 0
-168 -172 0
-168 -175 0
-172 -175 0
-118 -123 0
-118 -143 0
-118 -146 0
-123 -143 0
-123 -146 0
-143 -146 0
-119 -124 0
-119 -144 0
-119 -147 0
-124 -144 0
-124 -147 0
-144 -147 0
-125 -148 0
-125 -173 0
-125 -176 0
-148 -173 0
-148 -176 0
-173 -176 0
-120 -169 0
-120 -177 0
-169 -177 0
-121 -126 0
-121 -145 0
-121 -149 0
-121 -170 0
-121 -174 0
-121 -178 0
-126 -145 0
-126 -149 0
-126 -170 0
-126 -174 0
-126 -178 0
-145 -149 0
-145 -170 0
-145 -174 0
-145 -178 0
-149 -170 0
-149 -174 0
-149 -178 0
-170 -174 0
-170 -178 0
-174 -178 0
-179 -184 0
-179 -189 0
-179 -213 0
-179 -217 0
-179 -246 0
-179 -253 0
-179 -258 0
-184 -189 0
-184 -213 0
-184 -217 0
-184 -246 0
-184 -253 0
-184 -258 0
-189 -213 0
-189 -217 0
-189 -246 0
-189 -253 0
-189 -258 0
-213 -217 0
-213 -246 0
-213 -253 0
-213 -258 0
-217 -246 0
-217 -253 0
-217 -258 0
-246 -253 0
-246 -258 0
-253 -258 0
-180 -190 0
-180 -218 0
-180 -247 0
-180 -259 0
-190 -218 0
-190 -247 0
-190 -259 0
-218 -247 0
-218 -259 0
-247 -259 0
-181 -185 0
-181 -191 0
-181 -214 0
-181 -219 0
-181 -248 0
-181 -254 0
-181 -260 0
-185 -191 0
-185 -214 0
-185 -219 0
-185 -248 0
-185 -254 0
-185 -260 0
-191 -214 0
-191 -219 0
-191 -248 0
-191 -254 0
-191 -260 0
-214 -219 0
-214 -248 0
-214 -254 0
-214 -260 0
-219 -248 0
-219 -254 0
-219 -260 0
-248 -254 0
-248 -260 0
-254 -260 0
-182 -186 0
-182 -215 0
-182 -249 0
-182 -255 0
-186 -215 0
-186 -249 0
-186 -255 0
-215 -249 0
-215 -255 0
-249 -255 0
-187 -192 0
-187 -216 0
-187 -220 0
-187 -256 0
-187 -261 0
-192 -216 0
-192 -220 0
-192 -256 0
-192 -261 0
-216 -220 0
-216 -256 0
-216 -261 0
-220 -256 0
-220 -261 0
-256 -261 0
-221 -250 0
-221 -262 0
-250 -262 0
-222 -251 0
-222 -263 0
-251 -263 0
-183 -188 0
-183 -193 0
-183 -252 0
-183 -257 0
-183 -264 0
-188 -193 0
-188 -252 0
-188 -257 0
-188 -264 0
-193 -252 0
-193 -257 0
-193 -264 0
-252 -257 0
-252 -264 0
-257 -264 0
-194 -198 0
-194 -203 0
-194 -223 0
-194 -229 0
-194 -265 0
-194 -271 0
-194 -277 0
-198 -203 0
-198 -223 0
-198 -229 0
-198 -265 0
-198 -271 0
-198 -277 0
-203 -223 0
-203 -229 0
-203 -265 0
-203 -271 0
-203 -277 0
-223 -229 0
-223 -265 0
-223 -271 0
-223 -277 0
-229 -265 0
-229 -271 0
-229 -277 0
-265 -271 0
-265 -277 0
-271 -277 0
-195 -199 0
-195 -204 0
-195 -224 0
-195 -230 0
-195 -266 0
-195 -272 0
-195 -278 0
-199 -204 0
-199 -224 0
-199 -230 0
-199 -266 0
-199 -272 0
-199 -278 0
-204 -224 0
-204 -230 0
-204 -266 0
-204 -272 0
-204 -278 0
-224 -230 0
-224 -266 0
-224 -272 0
-224 -278 0
-230 -266 0
-230 -272 0
-230 -278 0
-266 -272 0
-266 -278 0
-272 -278 0
-196 -200 0
-196 -225 0
-196 -231 0
-196 -267 0
-196 -273 0
-200 -225 0
-200 -231 0
-200 -267 0
-200 -273 0
-225 -231 0
-225 -267 0
-225 -273 0
-231 -267 0
-231 -273 0
-267 -273 0
-197 -205 0
-197 -226 0
-197 -268 0
-197 -279 0
-205 -226 0
-205 -268 0
-205 -279 0
-226 -268 0
-226 -279 0
-268 -279 0
-201 -206 0
-201 -274 0
-201 -280 0
-206 -274 0
-206 -280 0
-274 -280 0
-202 -207 0
-202 -232 0
-202 -275 0
-202 -281 0
-207 -232 0
-207 -275 0
-207 -281 0
-232 -275 0
-232 -281 0
-275 -281 0
-227 -233 0
-227 -269 0
-227 -276 0
-227 -282 0
-233 -269 0
-233 -276 0
-233 -282 0
-269 -276 0
-269 -282 0
-276 -282 0
-228 -270 0
-228 -283 0
-270 -283 0
-208 -234 0
-208 -243 0
-208 -284 0
-208 -297 0
-234 -243 0
-234 -284 0
-234 -297 0
-243 -284 0
-243 -297 0
-284 -297 0
-235 -239 0
-235 -285 0
-235 -291 0
-239 -285 0
-239 -291 0
-285 -291 0
-236 -240 0
-236 -286 0
-236 -292 0
-240 -286 0
-240 -292 0
-286 -292 0
-209 -237 0
-209 -241 0
-209 -244 0
-209 -287 0
-209 -293 0
-209 -298 0
-237 -241 0
-237 -244 0
-237 -287 0
-237 -293 0
-237 -298 0
-241 -244 0
-241 -287 0
-241 -293 0
-241 -298 0
-244 -287 0
-244 -293 0
-244 -298 0
-287 -293 0
-287 -298 0
-293 -298 0
-210 -288 0
-210 -294 0
-210 -299 0
-288 -294 0
-288 -299 0
-294 -299 0
-211 -238 0
-211 -242 0
-211 -245 0
-211 -289 0
-211 -295 0
-211 -300 0
-238 -242 0
-238 -245 0
-238 -289 0
-238 -295 0
-238 -300 0
-242 -245 0
-242 -289 0
-242 -295 0
-242 -300 0
-245 -289 0
-245 -295 0
-245 -300 0
-289 -295 0
-289 -300 0
-295 -300 0
-212 -290 0
-212 -296 0
-212 -301 0
-290 -296 0
-290 -301 0
-296 -301 0
